;; translated from ./ctigar/MADWiFi-encode_ie_ok.c.vmt
;; original benchmark available at: https://es-static.fbk.eu/people/griggio/ic3ia/index.html
;; author: Alberto Griggio <griggio@fbk.eu>
(set-logic HORN)
(declare-fun state (Bool Bool Bool Bool Bool Int Int Int Int Int Int) Bool)
(assert (forall ((|.s.1| Bool) (|.s.0| Bool) (|.s.0.next| Bool) (|.s.1.next| Bool) (|.s.2.next| Bool) (|.s.3.next| Bool) (|.s.4.next| Bool) (|main.i.next| Int) (|main.i| Int) (|main.ielen.next| Int) (|main.ielen| Int) (|main.leader_len.next| Int) (|main.leader_len| Int) (|main.bufsize_0.next| Int) (|main.bufsize_0| Int) (|main.bufsize.next| Int) (|main.bufsize| Int) (|main.p.next| Int) (|main.p| Int) (|.s.3| Bool) (|.s.4| Bool) (|.s.2| Bool)) (=> (let ((.def_20 (not .s.4)))
(let ((.def_17 (not .s.3)))
(let ((.def_14 (not .s.2)))
(let ((.def_10 (not .s.1)))
(let ((.def_12 (and .def_10 .s.0)))
(let ((.def_15 (and .def_12 .def_14)))
(let ((.def_18 (and .def_15 .def_17)))
(let ((.def_21 (and .def_18 .def_20)))
.def_21)))))))) (state |.s.1| |.s.0| |.s.2| |.s.3| |.s.4| |main.p| |main.bufsize| |main.bufsize_0| |main.leader_len| |main.ielen| |main.i|))))
(assert (forall ((|.s.1| Bool) (|.s.0| Bool) (|.s.0.next| Bool) (|.s.1.next| Bool) (|.s.2.next| Bool) (|.s.3.next| Bool) (|.s.4.next| Bool) (|main.i.next| Int) (|main.i| Int) (|main.ielen.next| Int) (|main.ielen| Int) (|main.leader_len.next| Int) (|main.leader_len| Int) (|main.bufsize_0.next| Int) (|main.bufsize_0| Int) (|main.bufsize.next| Int) (|main.bufsize| Int) (|main.p.next| Int) (|main.p| Int) (|.s.3| Bool) (|.s.4| Bool) (|.s.2| Bool)) (=> (and (state |.s.1| |.s.0| |.s.2| |.s.3| |.s.4| |main.p| |main.bufsize| |main.bufsize_0| |main.leader_len| |main.ielen| |main.i|) (let ((.def_22 (not .s.0)))
(let ((.def_10 (not .s.1)))
(let ((.def_71 (and .def_10 .def_22)))
(let ((.def_14 (not .s.2)))
(let ((.def_72 (and .def_14 .def_71)))
(let ((.def_17 (not .s.3)))
(let ((.def_176 (and .def_17 .def_72)))
(let ((.def_20 (not .s.4)))
(let ((.def_455 (and .def_20 .def_176)))
(let ((.def_456 (not .def_455)))
(let ((.def_55 (not .s.0.next)))
(let ((.def_53 (not .s.1.next)))
(let ((.def_56 (and .def_53 .def_55)))
(let ((.def_51 (not .s.2.next)))
(let ((.def_57 (and .def_51 .def_56)))
(let ((.def_49 (not .s.3.next)))
(let ((.def_58 (and .def_49 .def_57)))
(let ((.def_47 (not .s.4.next)))
(let ((.def_59 (and .def_47 .def_58)))
(let ((.def_45 (= main.i main.i.next)))
(let ((.def_60 (and .def_45 .def_59)))
(let ((.def_42 (= main.ielen main.ielen.next)))
(let ((.def_61 (and .def_42 .def_60)))
(let ((.def_39 (= main.leader_len main.leader_len.next)))
(let ((.def_62 (and .def_39 .def_61)))
(let ((.def_36 (= main.bufsize_0 main.bufsize_0.next)))
(let ((.def_63 (and .def_36 .def_62)))
(let ((.def_33 (= main.bufsize main.bufsize.next)))
(let ((.def_64 (and .def_33 .def_63)))
(let ((.def_30 (= main.p main.p.next)))
(let ((.def_65 (and .def_30 .def_64)))
(let ((.def_457 (or .def_65 .def_456)))
(let ((.def_87 (and .s.1.next .def_55)))
(let ((.def_166 (and .def_51 .def_87)))
(let ((.def_311 (and .s.3.next .def_166)))
(let ((.def_447 (and .s.4.next .def_311)))
(let ((.def_448 (and .def_45 .def_447)))
(let ((.def_449 (and .def_42 .def_448)))
(let ((.def_450 (and .def_39 .def_449)))
(let ((.def_451 (and .def_36 .def_450)))
(let ((.def_452 (and .def_33 .def_451)))
(let ((.def_453 (and .def_30 .def_452)))
(let ((.def_433 (<= main.leader_len 0)))
(let ((.def_12 (and .def_10 .s.0)))
(let ((.def_15 (and .def_12 .def_14)))
(let ((.def_18 (and .def_15 .def_17)))
(let ((.def_21 (and .def_18 .def_20)))
(let ((.def_445 (and .def_21 .def_433)))
(let ((.def_446 (not .def_445)))
(let ((.def_454 (or .def_446 .def_453)))
(let ((.def_458 (and .def_454 .def_457)))
(let ((.def_167 (and .def_49 .def_166)))
(let ((.def_437 (and .def_47 .def_167)))
(let ((.def_438 (and .def_45 .def_437)))
(let ((.def_439 (and .def_42 .def_438)))
(let ((.def_440 (and .def_39 .def_439)))
(let ((.def_441 (and .def_36 .def_440)))
(let ((.def_442 (and .def_33 .def_441)))
(let ((.def_443 (and .def_30 .def_442)))
(let ((.def_434 (not .def_433)))
(let ((.def_435 (and .def_21 .def_434)))
(let ((.def_436 (not .def_435)))
(let ((.def_444 (or .def_436 .def_443)))
(let ((.def_459 (and .def_444 .def_458)))
(let ((.def_102 (and .def_53 .s.0.next)))
(let ((.def_186 (and .def_51 .def_102)))
(let ((.def_329 (and .s.3.next .def_186)))
(let ((.def_425 (and .s.4.next .def_329)))
(let ((.def_426 (and .def_45 .def_425)))
(let ((.def_427 (and .def_42 .def_426)))
(let ((.def_428 (and .def_39 .def_427)))
(let ((.def_429 (and .def_36 .def_428)))
(let ((.def_430 (and .def_33 .def_429)))
(let ((.def_431 (and .def_30 .def_430)))
(let ((.def_411 (<= main.bufsize 0)))
(let ((.def_23 (and .s.1 .def_22)))
(let ((.def_24 (and .def_14 .def_23)))
(let ((.def_145 (and .def_17 .def_24)))
(let ((.def_410 (and .def_20 .def_145)))
(let ((.def_423 (and .def_410 .def_411)))
(let ((.def_424 (not .def_423)))
(let ((.def_432 (or .def_424 .def_431)))
(let ((.def_460 (and .def_432 .def_459)))
(let ((.def_153 (and .s.1.next .s.0.next)))
(let ((.def_154 (and .def_51 .def_153)))
(let ((.def_155 (and .def_49 .def_154)))
(let ((.def_415 (and .def_47 .def_155)))
(let ((.def_416 (and .def_45 .def_415)))
(let ((.def_417 (and .def_42 .def_416)))
(let ((.def_418 (and .def_39 .def_417)))
(let ((.def_419 (and .def_36 .def_418)))
(let ((.def_420 (and .def_33 .def_419)))
(let ((.def_421 (and .def_30 .def_420)))
(let ((.def_412 (not .def_411)))
(let ((.def_413 (and .def_410 .def_412)))
(let ((.def_414 (not .def_413)))
(let ((.def_422 (or .def_414 .def_421)))
(let ((.def_461 (and .def_422 .def_460)))
(let ((.def_341 (and .s.3.next .def_57)))
(let ((.def_402 (and .s.4.next .def_341)))
(let ((.def_403 (and .def_45 .def_402)))
(let ((.def_404 (and .def_42 .def_403)))
(let ((.def_405 (and .def_39 .def_404)))
(let ((.def_406 (and .def_36 .def_405)))
(let ((.def_407 (and .def_33 .def_406)))
(let ((.def_408 (and .def_30 .def_407)))
(let ((.def_388 (<= main.ielen 0)))
(let ((.def_77 (and .s.1 .s.0)))
(let ((.def_126 (and .def_14 .def_77)))
(let ((.def_127 (and .def_17 .def_126)))
(let ((.def_387 (and .def_20 .def_127)))
(let ((.def_400 (and .def_387 .def_388)))
(let ((.def_401 (not .def_400)))
(let ((.def_409 (or .def_401 .def_408)))
(let ((.def_462 (and .def_409 .def_461)))
(let ((.def_135 (and .s.2.next .def_56)))
(let ((.def_136 (and .def_49 .def_135)))
(let ((.def_392 (and .def_47 .def_136)))
(let ((.def_393 (and .def_45 .def_392)))
(let ((.def_394 (and .def_42 .def_393)))
(let ((.def_395 (and .def_39 .def_394)))
(let ((.def_396 (and .def_36 .def_395)))
(let ((.def_397 (and .def_33 .def_396)))
(let ((.def_398 (and .def_30 .def_397)))
(let ((.def_389 (not .def_388)))
(let ((.def_390 (and .def_387 .def_389)))
(let ((.def_391 (not .def_390)))
(let ((.def_399 (or .def_391 .def_398)))
(let ((.def_463 (and .def_399 .def_462)))
(let ((.def_88 (and .s.2.next .def_87)))
(let ((.def_89 (and .def_49 .def_88)))
(let ((.def_379 (and .def_47 .def_89)))
(let ((.def_380 (and .def_45 .def_379)))
(let ((.def_381 (and .def_42 .def_380)))
(let ((.def_382 (and .def_39 .def_381)))
(let ((.def_383 (and .def_36 .def_382)))
(let ((.def_384 (and .def_33 .def_383)))
(let ((.def_385 (and .def_30 .def_384)))
(let ((.def_365 (<= main.leader_len main.bufsize)))
(let ((.def_113 (and .s.2 .def_71)))
(let ((.def_114 (and .def_17 .def_113)))
(let ((.def_364 (and .def_20 .def_114)))
(let ((.def_377 (and .def_364 .def_365)))
(let ((.def_378 (not .def_377)))
(let ((.def_386 (or .def_378 .def_385)))
(let ((.def_464 (and .def_386 .def_463)))
(let ((.def_103 (and .s.2.next .def_102)))
(let ((.def_104 (and .def_49 .def_103)))
(let ((.def_369 (and .def_47 .def_104)))
(let ((.def_370 (and .def_45 .def_369)))
(let ((.def_371 (and .def_42 .def_370)))
(let ((.def_372 (and .def_39 .def_371)))
(let ((.def_373 (and .def_36 .def_372)))
(let ((.def_374 (and .def_33 .def_373)))
(let ((.def_375 (and .def_30 .def_374)))
(let ((.def_366 (not .def_365)))
(let ((.def_367 (and .def_364 .def_366)))
(let ((.def_368 (not .def_367)))
(let ((.def_376 (or .def_368 .def_375)))
(let ((.def_465 (and .def_376 .def_464)))
(let ((.def_98 (and .def_12 .s.2)))
(let ((.def_99 (and .def_17 .def_98)))
(let ((.def_361 (and .def_20 .def_99)))
(let ((.def_362 (not .def_361)))
(let ((.def_363 (or .def_65 .def_362)))
(let ((.def_466 (and .def_363 .def_465)))
(let ((.def_216 (and .s.2.next .def_153)))
(let ((.def_240 (and .def_49 .def_216)))
(let ((.def_353 (and .def_47 .def_240)))
(let ((.def_352 (= main.p.next 0)))
(let ((.def_354 (and .def_352 .def_353)))
(let ((.def_355 (and .def_45 .def_354)))
(let ((.def_356 (and .def_42 .def_355)))
(let ((.def_357 (and .def_39 .def_356)))
(let ((.def_358 (and .def_36 .def_357)))
(let ((.def_359 (and .def_33 .def_358)))
(let ((.def_83 (and .s.2 .def_23)))
(let ((.def_84 (and .def_17 .def_83)))
(let ((.def_350 (and .def_20 .def_84)))
(let ((.def_351 (not .def_350)))
(let ((.def_360 (or .def_351 .def_359)))
(let ((.def_467 (and .def_360 .def_466)))
(let ((.def_342 (and .def_47 .def_341)))
(let ((.def_340 (= main.bufsize main.bufsize_0.next)))
(let ((.def_343 (and .def_340 .def_342)))
(let ((.def_344 (and .def_45 .def_343)))
(let ((.def_345 (and .def_42 .def_344)))
(let ((.def_346 (and .def_39 .def_345)))
(let ((.def_347 (and .def_33 .def_346)))
(let ((.def_348 (and .def_30 .def_347)))
(let ((.def_78 (and .s.2 .def_77)))
(let ((.def_79 (and .def_17 .def_78)))
(let ((.def_338 (and .def_20 .def_79)))
(let ((.def_339 (not .def_338)))
(let ((.def_349 (or .def_339 .def_348)))
(let ((.def_468 (and .def_349 .def_467)))
(let ((.def_330 (and .def_47 .def_329)))
(let ((.def_324 (* (- 1) main.leader_len)))
(let ((.def_325 (* (- 1) main.bufsize.next)))
(let ((.def_326 (+ .def_325 .def_324)))
(let ((.def_327 (+ main.bufsize .def_326)))
(let ((.def_328 (= .def_327 0)))
(let ((.def_331 (and .def_328 .def_330)))
(let ((.def_332 (and .def_45 .def_331)))
(let ((.def_333 (and .def_42 .def_332)))
(let ((.def_334 (and .def_39 .def_333)))
(let ((.def_335 (and .def_36 .def_334)))
(let ((.def_336 (and .def_30 .def_335)))
(let ((.def_73 (and .s.3 .def_72)))
(let ((.def_320 (and .def_20 .def_73)))
(let ((.def_321 (not .def_320)))
(let ((.def_337 (or .def_321 .def_336)))
(let ((.def_469 (and .def_337 .def_468)))
(let ((.def_312 (and .def_47 .def_311)))
(let ((.def_148 (* (- 1) main.p.next)))
(let ((.def_308 (+ .def_148 main.leader_len)))
(let ((.def_309 (+ main.p .def_308)))
(let ((.def_310 (= .def_309 0)))
(let ((.def_313 (and .def_310 .def_312)))
(let ((.def_314 (and .def_45 .def_313)))
(let ((.def_315 (and .def_42 .def_314)))
(let ((.def_316 (and .def_39 .def_315)))
(let ((.def_317 (and .def_36 .def_316)))
(let ((.def_318 (and .def_33 .def_317)))
(let ((.def_67 (and .def_15 .s.3)))
(let ((.def_305 (and .def_20 .def_67)))
(let ((.def_306 (not .def_305)))
(let ((.def_319 (or .def_306 .def_318)))
(let ((.def_470 (and .def_319 .def_469)))
(let ((.def_296 (and .s.3.next .def_135)))
(let ((.def_297 (and .def_47 .def_296)))
(let ((.def_298 (and .def_45 .def_297)))
(let ((.def_299 (and .def_42 .def_298)))
(let ((.def_300 (and .def_39 .def_299)))
(let ((.def_301 (and .def_36 .def_300)))
(let ((.def_302 (and .def_33 .def_301)))
(let ((.def_303 (and .def_30 .def_302)))
(let ((.def_279 (* (- 2) main.ielen)))
(let ((.def_280 (+ main.bufsize .def_279)))
(let ((.def_281 (<= 0 .def_280)))
(let ((.def_25 (and .s.3 .def_24)))
(let ((.def_275 (and .def_20 .def_25)))
(let ((.def_294 (and .def_275 .def_281)))
(let ((.def_295 (not .def_294)))
(let ((.def_304 (or .def_295 .def_303)))
(let ((.def_471 (and .def_304 .def_470)))
(let ((.def_285 (and .s.3.next .def_154)))
(let ((.def_286 (and .def_47 .def_285)))
(let ((.def_287 (and .def_45 .def_286)))
(let ((.def_288 (and .def_42 .def_287)))
(let ((.def_289 (and .def_39 .def_288)))
(let ((.def_290 (and .def_36 .def_289)))
(let ((.def_291 (and .def_33 .def_290)))
(let ((.def_292 (and .def_30 .def_291)))
(let ((.def_282 (not .def_281)))
(let ((.def_283 (and .def_275 .def_282)))
(let ((.def_284 (not .def_283)))
(let ((.def_293 (or .def_284 .def_292)))
(let ((.def_472 (and .def_293 .def_471)))
(let ((.def_271 (and .s.3 .def_126)))
(let ((.def_272 (and .def_20 .def_271)))
(let ((.def_273 (not .def_272)))
(let ((.def_274 (or .def_65 .def_273)))
(let ((.def_473 (and .def_274 .def_472)))
(let ((.def_263 (= main.i.next 0)))
(let ((.def_117 (and .s.3.next .def_103)))
(let ((.def_118 (and .def_47 .def_117)))
(let ((.def_264 (and .def_118 .def_263)))
(let ((.def_265 (and .def_42 .def_264)))
(let ((.def_266 (and .def_39 .def_265)))
(let ((.def_267 (and .def_36 .def_266)))
(let ((.def_268 (and .def_33 .def_267)))
(let ((.def_269 (and .def_30 .def_268)))
(let ((.def_260 (and .s.3 .def_113)))
(let ((.def_261 (and .def_20 .def_260)))
(let ((.def_262 (not .def_261)))
(let ((.def_270 (or .def_262 .def_269)))
(let ((.def_474 (and .def_270 .def_473)))
(let ((.def_251 (and .s.3.next .def_88)))
(let ((.def_252 (and .def_47 .def_251)))
(let ((.def_253 (and .def_45 .def_252)))
(let ((.def_254 (and .def_42 .def_253)))
(let ((.def_255 (and .def_39 .def_254)))
(let ((.def_256 (and .def_36 .def_255)))
(let ((.def_257 (and .def_33 .def_256)))
(let ((.def_258 (and .def_30 .def_257)))
(let ((.def_234 (<= main.ielen main.i)))
(let ((.def_235 (not .def_234)))
(let ((.def_232 (<= main.bufsize 2)))
(let ((.def_233 (not .def_232)))
(let ((.def_236 (and .def_233 .def_235)))
(let ((.def_230 (and .s.3 .def_98)))
(let ((.def_231 (and .def_20 .def_230)))
(let ((.def_249 (and .def_231 .def_236)))
(let ((.def_250 (not .def_249)))
(let ((.def_259 (or .def_250 .def_258)))
(let ((.def_475 (and .def_259 .def_474)))
(let ((.def_241 (and .s.4.next .def_240)))
(let ((.def_242 (and .def_45 .def_241)))
(let ((.def_243 (and .def_42 .def_242)))
(let ((.def_244 (and .def_39 .def_243)))
(let ((.def_245 (and .def_36 .def_244)))
(let ((.def_246 (and .def_33 .def_245)))
(let ((.def_247 (and .def_30 .def_246)))
(let ((.def_237 (not .def_236)))
(let ((.def_238 (and .def_231 .def_237)))
(let ((.def_239 (not .def_238)))
(let ((.def_248 (or .def_239 .def_247)))
(let ((.def_476 (and .def_248 .def_475)))
(let ((.def_213 (<= 0 main.p)))
(let ((.def_226 (not .def_213)))
(let ((.def_210 (and .s.3 .def_83)))
(let ((.def_211 (and .def_20 .def_210)))
(let ((.def_227 (and .def_211 .def_226)))
(let ((.def_228 (not .def_227)))
(let ((.def_90 (and .s.4.next .def_89)))
(let ((.def_91 (and .def_45 .def_90)))
(let ((.def_92 (and .def_42 .def_91)))
(let ((.def_93 (and .def_39 .def_92)))
(let ((.def_94 (and .def_36 .def_93)))
(let ((.def_95 (and .def_33 .def_94)))
(let ((.def_96 (and .def_30 .def_95)))
(let ((.def_229 (or .def_96 .def_228)))
(let ((.def_477 (and .def_229 .def_476)))
(let ((.def_217 (and .s.3.next .def_216)))
(let ((.def_218 (and .def_47 .def_217)))
(let ((.def_219 (and .def_45 .def_218)))
(let ((.def_220 (and .def_42 .def_219)))
(let ((.def_221 (and .def_39 .def_220)))
(let ((.def_222 (and .def_36 .def_221)))
(let ((.def_223 (and .def_33 .def_222)))
(let ((.def_224 (and .def_30 .def_223)))
(let ((.def_214 (and .def_211 .def_213)))
(let ((.def_215 (not .def_214)))
(let ((.def_225 (or .def_215 .def_224)))
(let ((.def_478 (and .def_225 .def_477)))
(let ((.def_202 (and .s.4.next .def_58)))
(let ((.def_203 (and .def_45 .def_202)))
(let ((.def_204 (and .def_42 .def_203)))
(let ((.def_205 (and .def_39 .def_204)))
(let ((.def_206 (and .def_36 .def_205)))
(let ((.def_207 (and .def_33 .def_206)))
(let ((.def_208 (and .def_30 .def_207)))
(let ((.def_199 (and .s.3 .def_78)))
(let ((.def_200 (and .def_20 .def_199)))
(let ((.def_201 (not .def_200)))
(let ((.def_209 (or .def_201 .def_208)))
(let ((.def_479 (and .def_209 .def_478)))
(let ((.def_180 (* (- 1) main.bufsize_0)))
(let ((.def_181 (+ main.p .def_180)))
(let ((.def_182 (<= (- 1) .def_181)))
(let ((.def_177 (and .s.4 .def_176)))
(let ((.def_196 (and .def_177 .def_182)))
(let ((.def_197 (not .def_196)))
(let ((.def_105 (and .s.4.next .def_104)))
(let ((.def_106 (and .def_45 .def_105)))
(let ((.def_107 (and .def_42 .def_106)))
(let ((.def_108 (and .def_39 .def_107)))
(let ((.def_109 (and .def_36 .def_108)))
(let ((.def_110 (and .def_33 .def_109)))
(let ((.def_111 (and .def_30 .def_110)))
(let ((.def_198 (or .def_111 .def_197)))
(let ((.def_480 (and .def_198 .def_479)))
(let ((.def_187 (and .def_49 .def_186)))
(let ((.def_188 (and .s.4.next .def_187)))
(let ((.def_189 (and .def_45 .def_188)))
(let ((.def_190 (and .def_42 .def_189)))
(let ((.def_191 (and .def_39 .def_190)))
(let ((.def_192 (and .def_36 .def_191)))
(let ((.def_193 (and .def_33 .def_192)))
(let ((.def_194 (and .def_30 .def_193)))
(let ((.def_183 (not .def_182)))
(let ((.def_184 (and .def_177 .def_183)))
(let ((.def_185 (not .def_184)))
(let ((.def_195 (or .def_185 .def_194)))
(let ((.def_481 (and .def_195 .def_480)))
(let ((.def_168 (and .s.4.next .def_167)))
(let ((.def_169 (and .def_45 .def_168)))
(let ((.def_170 (and .def_42 .def_169)))
(let ((.def_171 (and .def_39 .def_170)))
(let ((.def_172 (and .def_36 .def_171)))
(let ((.def_173 (and .def_33 .def_172)))
(let ((.def_174 (and .def_30 .def_173)))
(let ((.def_164 (and .def_18 .s.4)))
(let ((.def_165 (not .def_164)))
(let ((.def_175 (or .def_165 .def_174)))
(let ((.def_482 (and .def_175 .def_481)))
(let ((.def_156 (and .s.4.next .def_155)))
(let ((.def_149 (+ main.p .def_148)))
(let ((.def_152 (= .def_149 (- 2))))
(let ((.def_157 (and .def_152 .def_156)))
(let ((.def_158 (and .def_45 .def_157)))
(let ((.def_159 (and .def_42 .def_158)))
(let ((.def_160 (and .def_39 .def_159)))
(let ((.def_161 (and .def_36 .def_160)))
(let ((.def_162 (and .def_33 .def_161)))
(let ((.def_146 (and .s.4 .def_145)))
(let ((.def_147 (not .def_146)))
(let ((.def_163 (or .def_147 .def_162)))
(let ((.def_483 (and .def_163 .def_482)))
(let ((.def_137 (and .s.4.next .def_136)))
(let ((.def_132 (* (- 1) main.i.next)))
(let ((.def_133 (+ main.i .def_132)))
(let ((.def_134 (= .def_133 (- 1))))
(let ((.def_138 (and .def_134 .def_137)))
(let ((.def_139 (and .def_42 .def_138)))
(let ((.def_140 (and .def_39 .def_139)))
(let ((.def_141 (and .def_36 .def_140)))
(let ((.def_142 (and .def_33 .def_141)))
(let ((.def_143 (and .def_30 .def_142)))
(let ((.def_128 (and .s.4 .def_127)))
(let ((.def_129 (not .def_128)))
(let ((.def_144 (or .def_129 .def_143)))
(let ((.def_484 (and .def_144 .def_483)))
(let ((.def_119 (and .def_45 .def_118)))
(let ((.def_120 (and .def_42 .def_119)))
(let ((.def_121 (and .def_39 .def_120)))
(let ((.def_122 (and .def_36 .def_121)))
(let ((.def_123 (and .def_33 .def_122)))
(let ((.def_124 (and .def_30 .def_123)))
(let ((.def_115 (and .s.4 .def_114)))
(let ((.def_116 (not .def_115)))
(let ((.def_125 (or .def_116 .def_124)))
(let ((.def_485 (and .def_125 .def_484)))
(let ((.def_100 (and .s.4 .def_99)))
(let ((.def_101 (not .def_100)))
(let ((.def_112 (or .def_101 .def_111)))
(let ((.def_486 (and .def_112 .def_485)))
(let ((.def_85 (and .s.4 .def_84)))
(let ((.def_86 (not .def_85)))
(let ((.def_97 (or .def_86 .def_96)))
(let ((.def_487 (and .def_97 .def_486)))
(let ((.def_80 (and .s.4 .def_79)))
(let ((.def_81 (not .def_80)))
(let ((.def_82 (or .def_65 .def_81)))
(let ((.def_488 (and .def_82 .def_487)))
(let ((.def_74 (and .s.4 .def_73)))
(let ((.def_75 (not .def_74)))
(let ((.def_76 (or .def_65 .def_75)))
(let ((.def_489 (and .def_76 .def_488)))
(let ((.def_68 (and .s.4 .def_67)))
(let ((.def_69 (not .def_68)))
(let ((.def_70 (or .def_65 .def_69)))
(let ((.def_490 (and .def_70 .def_489)))
(let ((.def_26 (and .s.4 .def_25)))
(let ((.def_27 (not .def_26)))
(let ((.def_66 (or .def_27 .def_65)))
(let ((.def_491 (and .def_66 .def_490)))
.def_491))))))))))))))))))))))))))))))))))))))))))))))))))))))))))))))))))))))))))))))))))))))))))))))))))))))))))))))))))))))))))))))))))))))))))))))))))))))))))))))))))))))))))))))))))))))))))))))))))))))))))))))))))))))))))))))))))))))))))))))))))))))))))))))))))))))))))))))))))))))))))))))))))))))))))))))))))))))))))))))))))))))))))))))))))))))))))))))))))))))))))))))))))))))))))))))))))))))))))))))))))))))))))))))))))))))))))))))))))))))))))))))))) (state |.s.1.next| |.s.0.next| |.s.2.next| |.s.3.next| |.s.4.next| |main.p.next| |main.bufsize.next| |main.bufsize_0.next| |main.leader_len.next| |main.ielen.next| |main.i.next|))))
(assert (forall ((|.s.1| Bool) (|.s.0| Bool) (|.s.0.next| Bool) (|.s.1.next| Bool) (|.s.2.next| Bool) (|.s.3.next| Bool) (|.s.4.next| Bool) (|main.i.next| Int) (|main.i| Int) (|main.ielen.next| Int) (|main.ielen| Int) (|main.leader_len.next| Int) (|main.leader_len| Int) (|main.bufsize_0.next| Int) (|main.bufsize_0| Int) (|main.bufsize.next| Int) (|main.bufsize| Int) (|main.p.next| Int) (|main.p| Int) (|.s.3| Bool) (|.s.4| Bool) (|.s.2| Bool)) (=> (state |.s.1| |.s.0| |.s.2| |.s.3| |.s.4| |main.p| |main.bufsize| |main.bufsize_0| |main.leader_len| |main.ielen| |main.i|) (let ((.def_10 (not .s.1)))
(let ((.def_12 (and .def_10 .s.0)))
(let ((.def_98 (and .def_12 .s.2)))
(let ((.def_17 (not .s.3)))
(let ((.def_99 (and .def_17 .def_98)))
(let ((.def_100 (and .s.4 .def_99)))
(let ((.def_101 (not .def_100)))
(let ((.def_22 (not .s.0)))
(let ((.def_23 (and .s.1 .def_22)))
(let ((.def_83 (and .s.2 .def_23)))
(let ((.def_84 (and .def_17 .def_83)))
(let ((.def_85 (and .s.4 .def_84)))
(let ((.def_86 (not .def_85)))
(let ((.def_492 (and .def_86 .def_101)))
.def_492)))))))))))))))))
(check-sat)
